 &control
    calculation = 'scf',
    prefix='H2',
    outdir='./temp/',      ! temporary directory for large files
    pseudo_dir = '../../pseudo/'    ! directory where pp-files are kept
 /
&system    
    ibrav=  14, celldm(1) = 12.00, celldm(2) = 1.000, celldm(3) = 1.000, 
celldm(4) = 0.000, celldm(5) = 0.000, celldm(6) = 0.000,   
    nat=  2, ntyp= 1,
    ecutwfc = 50.0,
    ecutrho = 500.0,
    occupations='smearing', smearing='marzari-vanderbilt', degauss=0.04
 /

&ELECTRONS
      electron_maxstep = 400,
      conv_thr = 1.0d-6
      mixing_mode      = 'local-TF'
      mixing_beta      = 0.3D0
      diagonalization  = 'cg'
      startingwfc      = 'atomic+random' 
 /
ATOMIC_SPECIES
 H  1.008  H.pbe-rrkjus_psl.1.0.0.UPF
ATOMIC_POSITIONS alat
H  0.5000  0.5000  0.5000	    
H  0.6180  0.5000  0.5000	    
K_POINTS automatic
3 3 3 0 0 0

